p tw 128 21121 2 
1 66 
1 67 
1 69 
1 72 
1 73 
1 76 
1 77 
1 79 
1 81 
1 84 
1 85 
1 87 
1 89 
1 91 
1 94 
1 95 
1 97 
1 99 
1 101 
1 103 
1 105 
1 107 
1 109 
1 111 
1 113 
1 115 
1 118 
1 120 
1 121 
1 123 
1 126 
1 127 
2 65 
2 68 
2 70 
2 71 
2 74 
2 75 
2 78 
2 80 
2 82 
2 83 
2 86 
2 88 
2 90 
2 92 
2 93 
2 96 
2 98 
2 100 
2 102 
2 104 
2 106 
2 108 
2 110 
2 112 
2 114 
2 116 
2 117 
2 119 
2 122 
2 124 
2 125 
2 128 
3 4 
3 66 
3 68 
3 70 
3 71 
3 73 
3 75 
3 78 
3 80 
3 81 
3 84 
3 86 
3 87 
3 90 
3 91 
3 94 
3 95 
3 98 
3 100 
3 102 
3 104 
3 106 
3 107 
3 109 
3 111 
3 113 
3 115 
3 117 
3 120 
3 121 
3 123 
3 125 
3 128 
4 65 
4 67 
4 69 
4 72 
4 74 
4 76 
4 77 
4 79 
4 82 
4 83 
4 85 
4 88 
4 89 
4 92 
4 93 
4 96 
4 97 
4 99 
4 101 
4 103 
4 105 
4 108 
4 110 
4 112 
4 114 
4 116 
4 118 
4 119 
4 122 
4 124 
4 126 
4 127 
5 6 
5 66 
5 68 
5 69 
5 72 
5 73 
5 76 
5 78 
5 80 
5 82 
5 83 
5 85 
5 88 
5 89 
5 91 
5 93 
5 96 
5 97 
5 100 
5 101 
5 104 
5 106 
5 107 
5 109 
5 112 
5 113 
5 116 
5 117 
5 120 
5 122 
5 123 
5 125 
5 127 
6 65 
6 67 
6 70 
6 71 
6 74 
6 75 
6 77 
6 79 
6 81 
6 84 
6 86 
6 87 
6 90 
6 92 
6 94 
6 95 
6 98 
6 99 
6 102 
6 103 
6 105 
6 108 
6 110 
6 111 
6 114 
6 115 
6 118 
6 119 
6 121 
6 124 
6 126 
6 128 
7 8 
7 65 
7 68 
7 70 
7 71 
7 73 
7 76 
7 78 
7 79 
7 82 
7 83 
7 85 
7 87 
7 89 
7 91 
7 93 
7 95 
7 98 
7 100 
7 102 
7 103 
7 105 
7 107 
7 110 
7 112 
7 114 
7 116 
7 118 
7 120 
7 121 
7 123 
7 126 
7 128 
8 66 
8 67 
8 69 
8 72 
8 74 
8 75 
8 77 
8 80 
8 81 
8 84 
8 86 
8 88 
8 90 
8 92 
8 94 
8 96 
8 97 
8 99 
8 101 
8 104 
8 106 
8 108 
8 109 
8 111 
8 113 
8 115 
8 117 
8 119 
8 122 
8 124 
8 125 
8 127 
9 10 
9 66 
9 67 
9 70 
9 71 
9 73 
9 75 
9 78 
9 80 
9 81 
9 83 
9 85 
9 88 
9 89 
9 92 
9 94 
9 95 
9 98 
9 100 
9 101 
9 104 
9 105 
9 108 
9 110 
9 111 
9 113 
9 116 
9 118 
9 119 
9 122 
9 123 
9 126 
9 127 
10 65 
10 68 
10 69 
10 72 
10 74 
10 76 
10 77 
10 79 
10 82 
10 84 
10 86 
10 87 
10 90 
10 91 
10 93 
10 96 
10 97 
10 99 
10 102 
10 103 
10 106 
10 107 
10 109 
10 112 
10 114 
10 115 
10 117 
10 120 
10 121 
10 124 
10 125 
10 128 
11 12 
11 65 
11 68 
11 69 
11 72 
11 73 
11 75 
11 77 
11 79 
11 82 
11 84 
11 85 
11 88 
11 90 
11 92 
11 94 
11 96 
11 98 
11 100 
11 102 
11 103 
11 105 
11 108 
11 110 
11 111 
11 113 
11 116 
11 117 
11 120 
11 121 
11 123 
11 125 
11 127 
12 66 
12 67 
12 70 
12 71 
12 74 
12 76 
12 78 
12 80 
12 81 
12 83 
12 86 
12 87 
12 89 
12 91 
12 93 
12 95 
12 97 
12 99 
12 101 
12 104 
12 106 
12 107 
12 109 
12 112 
12 114 
12 115 
12 118 
12 119 
12 122 
12 124 
12 126 
12 128 
13 14 
13 66 
13 68 
13 70 
13 72 
13 73 
13 76 
13 78 
13 79 
13 81 
13 84 
13 85 
13 88 
13 90 
13 92 
13 94 
13 96 
13 97 
13 99 
13 102 
13 104 
13 106 
13 108 
13 110 
13 112 
13 114 
13 115 
13 118 
13 120 
13 122 
13 123 
13 126 
13 128 
14 65 
14 67 
14 69 
14 71 
14 74 
14 75 
14 77 
14 80 
14 82 
14 83 
14 86 
14 87 
14 89 
14 91 
14 93 
14 95 
14 98 
14 100 
14 101 
14 103 
14 105 
14 107 
14 109 
14 111 
14 113 
14 116 
14 117 
14 119 
14 121 
14 124 
14 125 
14 127 
15 16 
15 65 
15 68 
15 69 
15 71 
15 73 
15 76 
15 77 
15 80 
15 82 
15 83 
15 86 
15 88 
15 89 
15 92 
15 94 
15 96 
15 98 
15 99 
15 102 
15 103 
15 106 
15 107 
15 109 
15 111 
15 113 
15 115 
15 118 
15 119 
15 122 
15 123 
15 126 
15 128 
16 66 
16 67 
16 70 
16 72 
16 74 
16 75 
16 78 
16 79 
16 81 
16 84 
16 85 
16 87 
16 90 
16 91 
16 93 
16 95 
16 97 
16 100 
16 101 
16 104 
16 105 
16 108 
16 110 
16 112 
16 114 
16 116 
16 117 
16 120 
16 121 
16 124 
16 125 
16 127 
17 18 
17 66 
17 67 
17 69 
17 71 
17 73 
17 76 
17 78 
17 79 
17 82 
17 84 
17 85 
17 87 
17 90 
17 92 
17 94 
17 95 
17 98 
17 99 
17 101 
17 103 
17 106 
17 107 
17 110 
17 112 
17 113 
17 116 
17 117 
17 119 
17 122 
17 124 
17 125 
17 128 
18 65 
18 68 
18 70 
18 72 
18 74 
18 75 
18 77 
18 80 
18 81 
18 83 
18 86 
18 88 
18 89 
18 91 
18 93 
18 96 
18 97 
18 100 
18 102 
18 104 
18 105 
18 108 
18 109 
18 111 
18 114 
18 115 
18 118 
18 120 
18 121 
18 123 
18 126 
18 127 
19 20 
19 66 
19 68 
19 69 
19 72 
19 74 
19 76 
19 78 
19 79 
19 81 
19 83 
19 85 
19 88 
19 89 
19 91 
19 94 
19 95 
19 98 
19 100 
19 102 
19 103 
19 105 
19 108 
19 109 
19 111 
19 114 
19 115 
19 117 
19 119 
19 122 
19 124 
19 125 
19 128 
20 65 
20 67 
20 70 
20 71 
20 73 
20 75 
20 77 
20 80 
20 82 
20 84 
20 86 
20 87 
20 90 
20 92 
20 93 
20 96 
20 97 
20 99 
20 101 
20 104 
20 106 
20 107 
20 110 
20 112 
20 113 
20 116 
20 118 
20 120 
20 121 
20 123 
20 126 
20 127 
21 22 
21 65 
21 67 
21 69 
21 72 
21 73 
21 76 
21 77 
21 80 
21 81 
21 83 
21 85 
21 87 
21 90 
21 92 
21 93 
21 95 
21 98 
21 100 
21 102 
21 104 
21 106 
21 107 
21 110 
21 111 
21 114 
21 115 
21 118 
21 120 
21 122 
21 124 
21 125 
21 127 
22 66 
22 68 
22 70 
22 71 
22 74 
22 75 
22 78 
22 79 
22 82 
22 84 
22 86 
22 88 
22 89 
22 91 
22 94 
22 96 
22 97 
22 99 
22 101 
22 103 
22 105 
22 108 
22 109 
22 112 
22 113 
22 116 
22 117 
22 119 
22 121 
22 123 
22 126 
22 128 
23 24 
23 65 
23 67 
23 69 
23 71 
23 74 
23 76 
23 78 
23 80 
23 82 
23 84 
23 85 
23 88 
23 90 
23 91 
23 94 
23 96 
23 97 
23 100 
23 101 
23 104 
23 105 
23 107 
23 110 
23 111 
23 114 
23 115 
23 118 
23 119 
23 121 
23 123 
23 125 
23 128 
24 66 
24 68 
24 70 
24 72 
24 73 
24 75 
24 77 
24 79 
24 81 
24 83 
24 86 
24 87 
24 89 
24 92 
24 93 
24 95 
24 98 
24 99 
24 102 
24 103 
24 106 
24 108 
24 109 
24 112 
24 113 
24 116 
24 117 
24 120 
24 122 
24 124 
24 126 
24 127 
25 26 
25 65 
25 68 
25 69 
25 72 
25 74 
25 75 
25 78 
25 79 
25 81 
25 84 
25 86 
25 88 
25 90 
25 91 
25 93 
25 95 
25 98 
25 100 
25 101 
25 103 
25 106 
25 107 
25 110 
25 112 
25 113 
25 115 
25 118 
25 119 
25 122 
25 123 
25 126 
25 127 
26 66 
26 67 
26 70 
26 71 
26 73 
26 76 
26 77 
26 80 
26 82 
26 83 
26 85 
26 87 
26 89 
26 92 
26 94 
26 96 
26 97 
26 99 
26 102 
26 104 
26 105 
26 108 
26 109 
26 111 
26 114 
26 116 
26 117 
26 120 
26 121 
26 124 
26 125 
26 128 
27 28 
27 66 
27 67 
27 69 
27 71 
27 74 
27 76 
27 78 
27 79 
27 82 
27 83 
27 86 
27 87 
27 90 
27 91 
27 93 
27 96 
27 98 
27 99 
27 102 
27 104 
27 105 
27 108 
27 110 
27 111 
27 113 
27 115 
27 117 
27 120 
27 122 
27 123 
27 126 
27 127 
28 65 
28 68 
28 70 
28 72 
28 73 
28 75 
28 77 
28 80 
28 81 
28 84 
28 85 
28 88 
28 89 
28 92 
28 94 
28 95 
28 97 
28 100 
28 101 
28 103 
28 106 
28 107 
28 109 
28 112 
28 114 
28 116 
28 118 
28 119 
28 121 
28 124 
28 125 
28 128 
29 30 
29 66 
29 67 
29 70 
29 71 
29 74 
29 76 
29 77 
29 79 
29 81 
29 83 
29 86 
29 88 
29 89 
29 92 
29 94 
29 96 
29 98 
29 100 
29 101 
29 103 
29 106 
29 107 
29 110 
29 112 
29 114 
29 115 
29 117 
29 120 
29 121 
29 123 
29 125 
29 127 
30 65 
30 68 
30 69 
30 72 
30 73 
30 75 
30 78 
30 80 
30 82 
30 84 
30 85 
30 87 
30 90 
30 91 
30 93 
30 95 
30 97 
30 99 
30 102 
30 104 
30 105 
30 108 
30 109 
30 111 
30 113 
30 116 
30 118 
30 119 
30 122 
30 124 
30 126 
30 128 
31 32 
31 66 
31 68 
31 70 
31 72 
31 74 
31 76 
31 78 
31 80 
31 82 
31 84 
31 86 
31 87 
31 90 
31 92 
31 94 
31 96 
31 98 
31 100 
31 101 
31 103 
31 105 
31 107 
31 109 
31 111 
31 114 
31 116 
31 118 
31 120 
31 122 
31 124 
31 126 
31 127 
32 65 
32 67 
32 69 
32 71 
32 73 
32 75 
32 77 
32 79 
32 81 
32 83 
32 85 
32 88 
32 89 
32 91 
32 93 
32 95 
32 97 
32 99 
32 102 
32 104 
32 106 
32 108 
32 110 
32 112 
32 113 
32 115 
32 117 
32 119 
32 121 
32 123 
32 125 
32 128 
33 34 
33 66 
33 67 
33 70 
33 72 
33 74 
33 75 
33 77 
33 79 
33 82 
33 84 
33 85 
33 87 
33 89 
33 92 
33 93 
33 96 
33 98 
33 100 
33 102 
33 104 
33 105 
33 107 
33 109 
33 112 
33 113 
33 115 
33 118 
33 119 
33 122 
33 123 
33 125 
33 128 
34 65 
34 68 
34 69 
34 71 
34 73 
34 76 
34 78 
34 80 
34 81 
34 83 
34 86 
34 88 
34 90 
34 91 
34 94 
34 95 
34 97 
34 99 
34 101 
34 103 
34 106 
34 108 
34 110 
34 111 
34 114 
34 116 
34 117 
34 120 
34 121 
34 124 
34 126 
34 127 
35 36 
35 65 
35 67 
35 70 
35 72 
35 74 
35 75 
35 77 
35 79 
35 82 
35 83 
35 85 
35 88 
35 90 
35 91 
35 94 
35 95 
35 98 
35 99 
35 101 
35 104 
35 106 
35 107 
35 109 
35 111 
35 114 
35 116 
35 117 
35 120 
35 122 
35 123 
35 126 
35 128 
36 66 
36 68 
36 69 
36 71 
36 73 
36 76 
36 78 
36 80 
36 81 
36 84 
36 86 
36 87 
36 89 
36 92 
36 93 
36 96 
36 97 
36 100 
36 102 
36 103 
36 105 
36 108 
36 110 
36 112 
36 113 
36 115 
36 118 
36 119 
36 121 
36 124 
36 125 
36 127 
37 38 
37 65 
37 68 
37 70 
37 71 
37 74 
37 76 
37 77 
37 79 
37 81 
37 84 
37 85 
37 87 
37 89 
37 91 
37 94 
37 96 
37 97 
37 100 
37 102 
37 104 
37 106 
37 107 
37 110 
37 111 
37 113 
37 116 
37 117 
37 119 
37 122 
37 124 
37 126 
37 127 
38 66 
38 67 
38 69 
38 72 
38 73 
38 75 
38 78 
38 80 
38 82 
38 83 
38 86 
38 88 
38 90 
38 92 
38 93 
38 95 
38 98 
38 99 
38 101 
38 103 
38 105 
38 108 
38 109 
38 112 
38 114 
38 115 
38 118 
38 120 
38 121 
38 123 
38 125 
38 128 
39 40 
39 66 
39 67 
39 69 
39 71 
39 74 
39 75 
39 78 
39 79 
39 81 
39 83 
39 85 
39 88 
39 90 
39 92 
39 93 
39 96 
39 97 
39 100 
39 102 
39 103 
39 106 
39 107 
39 109 
39 111 
39 113 
39 116 
39 118 
39 120 
39 121 
39 124 
39 126 
39 128 
40 65 
40 68 
40 70 
40 72 
40 73 
40 76 
40 77 
40 80 
40 82 
40 84 
40 86 
40 87 
40 89 
40 91 
40 94 
40 95 
40 98 
40 99 
40 101 
40 104 
40 105 
40 108 
40 110 
40 112 
40 114 
40 115 
40 117 
40 119 
40 122 
40 123 
40 125 
40 127 
41 42 
41 66 
41 67 
41 69 
41 72 
41 73 
41 75 
41 77 
41 80 
41 81 
41 83 
41 86 
41 87 
41 90 
41 91 
41 94 
41 96 
41 97 
41 100 
41 102 
41 103 
41 105 
41 107 
41 110 
41 112 
41 114 
41 116 
41 117 
41 119 
41 122 
41 123 
41 126 
41 128 
42 65 
42 68 
42 70 
42 71 
42 74 
42 76 
42 78 
42 79 
42 82 
42 84 
42 85 
42 88 
42 89 
42 92 
42 93 
42 95 
42 98 
42 99 
42 101 
42 104 
42 106 
42 108 
42 109 
42 111 
42 113 
42 115 
42 118 
42 120 
42 121 
42 124 
42 125 
42 127 
43 44 
43 66 
43 68 
43 69 
43 71 
43 74 
43 75 
43 77 
43 80 
43 82 
43 84 
43 85 
43 87 
43 89 
43 92 
43 93 
43 95 
43 97 
43 100 
43 101 
43 103 
43 106 
43 108 
43 110 
43 111 
43 114 
43 115 
43 117 
43 120 
43 122 
43 123 
43 126 
43 128 
44 65 
44 67 
44 70 
44 72 
44 73 
44 76 
44 78 
44 79 
44 81 
44 83 
44 86 
44 88 
44 90 
44 91 
44 94 
44 96 
44 98 
44 99 
44 102 
44 104 
44 105 
44 107 
44 109 
44 112 
44 113 
44 116 
44 118 
44 119 
44 121 
44 124 
44 125 
44 127 
45 46 
45 65 
45 67 
45 70 
45 71 
45 73 
45 76 
45 77 
45 80 
45 81 
45 84 
45 85 
45 88 
45 90 
45 91 
45 93 
45 96 
45 98 
45 100 
45 101 
45 103 
45 105 
45 108 
45 109 
45 112 
45 113 
45 115 
45 117 
45 120 
45 122 
45 124 
45 126 
45 128 
46 66 
46 68 
46 69 
46 72 
46 74 
46 75 
46 78 
46 79 
46 82 
46 83 
46 86 
46 87 
46 89 
46 92 
46 94 
46 95 
46 97 
46 99 
46 102 
46 104 
46 106 
46 107 
46 110 
46 111 
46 114 
46 116 
46 118 
46 119 
46 121 
46 123 
46 125 
46 127 
47 48 
47 66 
47 68 
47 69 
47 71 
47 73 
47 75 
47 77 
47 79 
47 82 
47 83 
47 85 
47 87 
47 90 
47 91 
47 94 
47 96 
47 98 
47 100 
47 101 
47 104 
47 106 
47 108 
47 109 
47 112 
47 114 
47 115 
47 118 
47 119 
47 121 
47 124 
47 126 
47 127 
48 65 
48 67 
48 70 
48 72 
48 74 
48 76 
48 78 
48 80 
48 81 
48 84 
48 86 
48 88 
48 89 
48 92 
48 93 
48 95 
48 97 
48 99 
48 102 
48 103 
48 105 
48 107 
48 110 
48 111 
48 113 
48 116 
48 117 
48 120 
48 122 
48 123 
48 125 
48 128 
49 50 
49 65 
49 68 
49 69 
49 72 
49 74 
49 75 
49 78 
49 80 
49 81 
49 83 
49 85 
49 87 
49 89 
49 92 
49 94 
49 96 
49 98 
49 99 
49 101 
49 104 
49 105 
49 107 
49 110 
49 112 
49 113 
49 115 
49 117 
49 120 
49 121 
49 124 
49 126 
49 128 
50 66 
50 67 
50 70 
50 71 
50 73 
50 76 
50 77 
50 79 
50 82 
50 84 
50 86 
50 88 
50 90 
50 91 
50 93 
50 95 
50 97 
50 100 
50 102 
50 103 
50 106 
50 108 
50 109 
50 111 
50 114 
50 116 
50 118 
50 119 
50 122 
50 123 
50 125 
50 127 
51 52 
51 66 
51 68 
51 70 
51 72 
51 73 
51 76 
51 77 
51 79 
51 82 
51 83 
51 86 
51 88 
51 90 
51 92 
51 93 
51 95 
51 97 
51 100 
51 101 
51 104 
51 105 
51 107 
51 110 
51 111 
51 113 
51 115 
51 117 
51 119 
51 121 
51 124 
51 126 
51 128 
52 65 
52 67 
52 69 
52 71 
52 74 
52 75 
52 78 
52 80 
52 81 
52 84 
52 85 
52 87 
52 89 
52 91 
52 94 
52 96 
52 98 
52 99 
52 102 
52 103 
52 106 
52 108 
52 109 
52 112 
52 114 
52 116 
52 118 
52 120 
52 122 
52 123 
52 125 
52 127 
53 54 
53 65 
53 67 
53 70 
53 72 
53 73 
53 75 
53 78 
53 79 
53 82 
53 83 
53 86 
53 87 
53 89 
53 91 
53 94 
53 96 
53 97 
53 100 
53 101 
53 103 
53 106 
53 108 
53 110 
53 111 
53 113 
53 115 
53 118 
53 120 
53 122 
53 124 
53 125 
53 128 
54 66 
54 68 
54 69 
54 71 
54 74 
54 76 
54 77 
54 80 
54 81 
54 84 
54 85 
54 88 
54 90 
54 92 
54 93 
54 95 
54 98 
54 99 
54 102 
54 104 
54 105 
54 107 
54 109 
54 112 
54 114 
54 116 
54 117 
54 119 
54 121 
54 123 
54 126 
54 127 
55 56 
55 65 
55 67 
55 69 
55 72 
55 73 
55 76 
55 78 
55 79 
55 81 
55 84 
55 86 
55 87 
55 89 
55 92 
55 93 
55 96 
55 98 
55 100 
55 101 
55 104 
55 106 
55 108 
55 109 
55 111 
55 114 
55 116 
55 117 
55 119 
55 121 
55 123 
55 126 
55 128 
56 66 
56 68 
56 70 
56 71 
56 74 
56 75 
56 77 
56 80 
56 82 
56 83 
56 85 
56 88 
56 90 
56 91 
56 94 
56 95 
56 97 
56 99 
56 102 
56 103 
56 105 
56 107 
56 110 
56 112 
56 113 
56 115 
56 118 
56 120 
56 122 
56 124 
56 125 
56 127 
57 58 
57 66 
57 67 
57 69 
57 72 
57 74 
57 76 
57 77 
57 80 
57 82 
57 84 
57 86 
57 88 
57 89 
57 91 
57 94 
57 95 
57 98 
57 100 
57 102 
57 104 
57 106 
57 108 
57 110 
57 112 
57 113 
57 116 
57 118 
57 120 
57 121 
57 124 
57 126 
57 128 
58 65 
58 68 
58 70 
58 71 
58 73 
58 75 
58 78 
58 79 
58 81 
58 83 
58 85 
58 87 
58 90 
58 92 
58 93 
58 96 
58 97 
58 99 
58 101 
58 103 
58 105 
58 107 
58 109 
58 111 
58 114 
58 115 
58 117 
58 119 
58 122 
58 123 
58 125 
58 127 
59 60 
59 65 
59 67 
59 70 
59 72 
59 74 
59 76 
59 78 
59 80 
59 82 
59 83 
59 85 
59 87 
59 90 
59 92 
59 94 
59 95 
59 97 
59 100 
59 102 
59 103 
59 106 
59 108 
59 109 
59 112 
59 113 
59 115 
59 117 
59 119 
59 121 
59 123 
59 126 
59 127 
60 66 
60 68 
60 69 
60 71 
60 73 
60 75 
60 77 
60 79 
60 81 
60 84 
60 86 
60 88 
60 89 
60 91 
60 93 
60 96 
60 98 
60 99 
60 101 
60 104 
60 105 
60 107 
60 110 
60 111 
60 114 
60 116 
60 118 
60 120 
60 122 
60 124 
60 125 
60 128 
61 62 
61 66 
61 67 
61 70 
61 72 
61 73 
61 75 
61 78 
61 80 
61 82 
61 84 
61 85 
61 88 
61 89 
61 91 
61 93 
61 96 
61 98 
61 99 
61 102 
61 103 
61 106 
61 107 
61 110 
61 111 
61 114 
61 115 
61 117 
61 119 
61 121 
61 124 
61 126 
61 127 
62 65 
62 68 
62 69 
62 71 
62 74 
62 76 
62 77 
62 79 
62 81 
62 83 
62 86 
62 87 
62 90 
62 92 
62 94 
62 95 
62 97 
62 100 
62 101 
62 104 
62 105 
62 108 
62 109 
62 112 
62 113 
62 116 
62 118 
62 120 
62 122 
62 123 
62 125 
62 128 
63 64 
63 66 
63 68 
63 70 
63 72 
63 74 
63 76 
63 77 
63 80 
63 81 
63 83 
63 85 
63 87 
63 90 
63 91 
63 93 
63 96 
63 98 
63 99 
63 101 
63 103 
63 106 
63 108 
63 110 
63 111 
63 113 
63 116 
63 118 
63 119 
63 121 
63 123 
63 125 
63 128 
64 65 
64 67 
64 69 
64 71 
64 73 
64 75 
64 78 
64 79 
64 82 
64 84 
64 86 
64 88 
64 89 
64 92 
64 94 
64 95 
64 97 
64 100 
64 102 
64 104 
64 105 
64 107 
64 109 
64 112 
64 114 
64 115 
64 117 
64 120 
64 122 
64 124 
64 126 
64 127 
65 66 
67 68 
69 70 
71 72 
73 74 
75 76 
77 78 
79 80 
81 82 
83 84 
85 86 
87 88 
89 90 
91 92 
93 94 
95 96 
97 98 
99 100 
101 102 
103 104 
105 106 
107 108 
109 110 
111 112 
113 114 
115 116 
117 118 
119 120 
121 122 
123 124 
125 126 
127 128 
